% Generated by MiniZinc 2.9.3
% Solver library: /home/icwmmarijnisse/Pumpkin/minizinc/lib
% Command line invocation: minizinc --compile --fzn ./instance.fzn --ozn ./instance.ozn --solver pumpkin ../../../../benchmarks/models/tsp/instances/tsp.mzn ../../../../benchmarks/models/tsp/instances/TSP_N15_0.dzn 

predicate pumpkin_circuit(array [int] of var int: x);
array [1..15] of int: X_INTRODUCED_33_ = [0,563,170,272,541,894,622,434,988,217,952,553,774,748,707];
array [1..15] of int: X_INTRODUCED_35_ = [563,0,206,731,320,409,688,666,383,449,922,530,463,124,254];
array [1..15] of int: X_INTRODUCED_37_ = [170,206,0,231,66,347,22,603,568,236,603,226,8,73,725];
array [1..15] of int: X_INTRODUCED_39_ = [272,731,231,0,647,61,235,70,928,33,881,339,73,527,244];
array [1..15] of int: X_INTRODUCED_41_ = [541,320,66,647,0,286,686,498,220,553,136,741,958,904,585];
array [1..15] of int: X_INTRODUCED_43_ = [894,409,347,61,286,0,591,485,249,804,485,827,417,195,97];
array [1..15] of int: X_INTRODUCED_45_ = [622,688,22,235,686,591,0,100,675,442,363,434,421,479,885];
array [1..15] of int: X_INTRODUCED_47_ = [434,666,603,70,498,485,100,0,747,56,690,670,662,101,63];
array [1..15] of int: X_INTRODUCED_49_ = [988,383,568,928,220,249,675,747,0,413,746,348,820,883,112];
array [1..15] of int: X_INTRODUCED_51_ = [217,449,236,33,553,804,442,56,413,0,255,197,195,550,460];
array [1..15] of int: X_INTRODUCED_53_ = [952,922,603,881,136,485,363,690,746,255,0,144,433,188,286];
array [1..15] of int: X_INTRODUCED_55_ = [553,530,226,339,741,827,434,670,348,197,144,0,474,256,896];
array [1..15] of int: X_INTRODUCED_57_ = [774,463,8,73,958,417,421,662,820,195,433,474,0,946,78];
array [1..15] of int: X_INTRODUCED_59_ = [748,124,73,527,904,195,479,101,883,550,188,256,946,0,454];
array [1..15] of int: X_INTRODUCED_61_ = [707,254,725,244,585,97,885,63,112,460,286,896,78,454,0];
array [1..16] of int: X_INTRODUCED_66_ = [1,-1,-1,-1,-1,-1,-1,-1,-1,-1,-1,-1,-1,-1,-1,-1];
var 1..15: X_INTRODUCED_16_;
var 1..15: X_INTRODUCED_17_;
var 1..15: X_INTRODUCED_18_;
var 1..15: X_INTRODUCED_19_;
var 1..15: X_INTRODUCED_20_;
var 1..15: X_INTRODUCED_21_;
var 1..15: X_INTRODUCED_22_;
var 1..15: X_INTRODUCED_23_;
var 1..15: X_INTRODUCED_24_;
var 1..15: X_INTRODUCED_25_;
var 1..15: X_INTRODUCED_26_;
var 1..15: X_INTRODUCED_27_;
var 1..15: X_INTRODUCED_28_;
var 1..15: X_INTRODUCED_29_;
var 1..15: X_INTRODUCED_30_;
var 0..13487: Objective:: output_var:: is_defined_var;
var 0..988: X_INTRODUCED_34_ ::var_is_introduced :: is_defined_var;
var 0..922: X_INTRODUCED_36_ ::var_is_introduced :: is_defined_var;
var 0..725: X_INTRODUCED_38_ ::var_is_introduced :: is_defined_var;
var 0..928: X_INTRODUCED_40_ ::var_is_introduced :: is_defined_var;
var 0..958: X_INTRODUCED_42_ ::var_is_introduced :: is_defined_var;
var 0..894: X_INTRODUCED_44_ ::var_is_introduced :: is_defined_var;
var 0..885: X_INTRODUCED_46_ ::var_is_introduced :: is_defined_var;
var 0..747: X_INTRODUCED_48_ ::var_is_introduced :: is_defined_var;
var 0..988: X_INTRODUCED_50_ ::var_is_introduced :: is_defined_var;
var 0..804: X_INTRODUCED_52_ ::var_is_introduced :: is_defined_var;
var 0..952: X_INTRODUCED_54_ ::var_is_introduced :: is_defined_var;
var 0..896: X_INTRODUCED_56_ ::var_is_introduced :: is_defined_var;
var 0..958: X_INTRODUCED_58_ ::var_is_introduced :: is_defined_var;
var 0..946: X_INTRODUCED_60_ ::var_is_introduced :: is_defined_var;
var 0..896: X_INTRODUCED_62_ ::var_is_introduced :: is_defined_var;
array [1..15] of var int: Successor:: output_array([1..15]) = [X_INTRODUCED_16_,X_INTRODUCED_17_,X_INTRODUCED_18_,X_INTRODUCED_19_,X_INTRODUCED_20_,X_INTRODUCED_21_,X_INTRODUCED_22_,X_INTRODUCED_23_,X_INTRODUCED_24_,X_INTRODUCED_25_,X_INTRODUCED_26_,X_INTRODUCED_27_,X_INTRODUCED_28_,X_INTRODUCED_29_,X_INTRODUCED_30_];
array [1..16] of var int: X_INTRODUCED_65_ ::var_is_introduced  = [Objective,X_INTRODUCED_34_,X_INTRODUCED_36_,X_INTRODUCED_38_,X_INTRODUCED_40_,X_INTRODUCED_42_,X_INTRODUCED_44_,X_INTRODUCED_46_,X_INTRODUCED_48_,X_INTRODUCED_50_,X_INTRODUCED_52_,X_INTRODUCED_54_,X_INTRODUCED_56_,X_INTRODUCED_58_,X_INTRODUCED_60_,X_INTRODUCED_62_];
constraint pumpkin_circuit(Successor);
constraint array_int_element(X_INTRODUCED_16_,X_INTRODUCED_33_,X_INTRODUCED_34_):: defines_var(X_INTRODUCED_34_);
constraint array_int_element(X_INTRODUCED_17_,X_INTRODUCED_35_,X_INTRODUCED_36_):: defines_var(X_INTRODUCED_36_);
constraint array_int_element(X_INTRODUCED_18_,X_INTRODUCED_37_,X_INTRODUCED_38_):: defines_var(X_INTRODUCED_38_);
constraint array_int_element(X_INTRODUCED_19_,X_INTRODUCED_39_,X_INTRODUCED_40_):: defines_var(X_INTRODUCED_40_);
constraint array_int_element(X_INTRODUCED_20_,X_INTRODUCED_41_,X_INTRODUCED_42_):: defines_var(X_INTRODUCED_42_);
constraint array_int_element(X_INTRODUCED_21_,X_INTRODUCED_43_,X_INTRODUCED_44_):: defines_var(X_INTRODUCED_44_);
constraint array_int_element(X_INTRODUCED_22_,X_INTRODUCED_45_,X_INTRODUCED_46_):: defines_var(X_INTRODUCED_46_);
constraint array_int_element(X_INTRODUCED_23_,X_INTRODUCED_47_,X_INTRODUCED_48_):: defines_var(X_INTRODUCED_48_);
constraint array_int_element(X_INTRODUCED_24_,X_INTRODUCED_49_,X_INTRODUCED_50_):: defines_var(X_INTRODUCED_50_);
constraint array_int_element(X_INTRODUCED_25_,X_INTRODUCED_51_,X_INTRODUCED_52_):: defines_var(X_INTRODUCED_52_);
constraint array_int_element(X_INTRODUCED_26_,X_INTRODUCED_53_,X_INTRODUCED_54_):: defines_var(X_INTRODUCED_54_);
constraint array_int_element(X_INTRODUCED_27_,X_INTRODUCED_55_,X_INTRODUCED_56_):: defines_var(X_INTRODUCED_56_);
constraint array_int_element(X_INTRODUCED_28_,X_INTRODUCED_57_,X_INTRODUCED_58_):: defines_var(X_INTRODUCED_58_);
constraint array_int_element(X_INTRODUCED_29_,X_INTRODUCED_59_,X_INTRODUCED_60_):: defines_var(X_INTRODUCED_60_);
constraint array_int_element(X_INTRODUCED_30_,X_INTRODUCED_61_,X_INTRODUCED_62_):: defines_var(X_INTRODUCED_62_);
constraint int_lin_eq(X_INTRODUCED_66_,X_INTRODUCED_65_,0):: defines_var(Objective);
solve  minimize Objective;
